p edge 42 290
e 1 2
e 1 3
e 1 12
e 1 14
e 1 18
e 1 19
e 1 22
e 1 23
e 1 25
e 1 30
e 1 31
e 1 34
e 1 36
e 1 42
e 2 6
e 2 7
e 2 10
e 2 14
e 2 15
e 2 17
e 2 26
e 2 28
e 2 29
e 2 31
e 2 32
e 2 34
e 2 38
e 3 6
e 3 7
e 3 9
e 3 14
e 3 15
e 3 16
e 3 19
e 3 25
e 3 26
e 3 27
e 3 28
e 3 29
e 3 32
e 3 36
e 3 41
e 4 6
e 4 7
e 4 12
e 4 13
e 4 16
e 4 18
e 4 21
e 4 25
e 4 36
e 4 37
e 5 10
e 5 13
e 5 14
e 5 20
e 5 24
e 5 33
e 5 34
e 5 41
e 6 8
e 6 17
e 6 21
e 6 24
e 6 26
e 6 30
e 6 33
e 6 36
e 6 42
e 7 9
e 7 11
e 7 12
e 7 17
e 7 28
e 7 31
e 7 36
e 7 41
e 7 42
e 8 16
e 8 17
e 8 19
e 8 21
e 8 25
e 8 36
e 8 38
e 8 39
e 9 11
e 9 15
e 9 19
e 9 23
e 9 27
e 9 29
e 9 32
e 9 33
e 9 36
e 9 37
e 9 41
e 10 11
e 10 12
e 10 14
e 10 18
e 10 19
e 10 21
e 10 28
e 10 29
e 10 31
e 10 37
e 10 41
e 10 42
e 11 19
e 11 20
e 11 21
e 11 22
e 11 23
e 11 26
e 11 29
e 11 30
e 11 31
e 11 35
e 11 36
e 11 39
e 12 14
e 12 17
e 12 19
e 12 20
e 12 23
e 12 24
e 12 26
e 12 31
e 12 33
e 12 37
e 12 38
e 12 39
e 12 40
e 13 16
e 13 23
e 13 27
e 13 28
e 13 31
e 13 32
e 13 37
e 13 38
e 14 16
e 14 17
e 14 19
e 14 20
e 14 24
e 14 25
e 14 29
e 14 30
e 14 31
e 14 33
e 14 35
e 14 36
e 14 39
e 15 16
e 15 17
e 15 19
e 15 23
e 15 26
e 15 30
e 15 36
e 15 38
e 15 39
e 16 17
e 16 19
e 16 20
e 16 23
e 16 27
e 16 36
e 16 39
e 16 41
e 17 19
e 17 26
e 17 27
e 17 28
e 17 29
e 17 30
e 17 31
e 17 32
e 17 35
e 17 39
e 18 19
e 18 20
e 18 23
e 18 26
e 18 27
e 18 30
e 18 32
e 18 33
e 18 34
e 18 39
e 18 41
e 18 42
e 19 20
e 19 21
e 19 34
e 19 39
e 20 21
e 20 22
e 20 23
e 20 25
e 20 29
e 20 30
e 20 32
e 20 33
e 20 34
e 20 35
e 20 38
e 20 41
e 21 22
e 21 23
e 21 24
e 21 26
e 21 29
e 21 30
e 21 31
e 21 38
e 21 39
e 21 40
e 21 42
e 22 26
e 22 27
e 22 28
e 22 30
e 22 38
e 22 39
e 23 24
e 23 30
e 23 32
e 23 34
e 24 26
e 24 28
e 24 30
e 24 31
e 24 32
e 24 34
e 24 38
e 24 39
e 25 26
e 25 29
e 25 35
e 25 36
e 25 37
e 26 27
e 26 28
e 26 31
e 26 33
e 27 28
e 27 30
e 27 31
e 27 33
e 27 40
e 28 37
e 28 39
e 29 33
e 29 34
e 29 35
e 29 41
e 30 31
e 30 33
e 30 34
e 30 37
e 30 39
e 30 40
e 30 42
e 31 32
e 31 33
e 31 37
e 31 40
e 31 41
e 31 42
e 32 33
e 33 35
e 33 37
e 33 38
e 34 35
e 34 40
e 35 36
e 35 38
e 35 39
e 35 40
e 36 37
e 36 39
e 37 39
e 37 40
e 38 39
e 38 42
e 40 41
e 41 42
